DIMACS_lns/graph-1000-918.col
p edge 1000 1811
e 1 612
e 1 976
e 1 787
e 1 801
e 1 668
e 1 611
e 1 300
e 1 12
e 3 962
e 3 465
e 3 117
e 3 256
e 3 340
e 3 936
e 3 296
e 3 562
e 4 699
e 4 972
e 4 828
e 7 88
e 7 153
e 7 866
e 7 85
e 7 992
e 8 257
e 8 197
e 8 510
e 9 732
e 9 370
e 9 910
e 9 948
e 9 315
e 10 688
e 10 742
e 10 397
e 11 511
e 11 56
e 11 305
e 12 832
e 12 602
e 12 623
e 12 778
e 12 277
e 12 953
e 13 381
e 13 32
e 13 802
e 13 607
e 13 65
e 13 60
e 13 110
e 13 495
e 14 726
e 14 719
e 14 194
e 14 537
e 14 544
e 15 839
e 15 357
e 15 722
e 15 249
e 15 332
e 15 662
e 16 522
e 16 204
e 16 599
e 17 976
e 17 509
e 17 240
e 17 713
e 17 250
e 19 720
e 19 407
e 19 575
e 19 510
e 20 81
e 20 933
e 20 360
e 21 44
e 21 997
e 21 526
e 22 880
e 22 500
e 22 547
e 22 97
e 22 847
e 23 224
e 23 799
e 23 434
e 23 81
e 25 929
e 25 530
e 25 165
e 25 532
e 25 81
e 27 257
e 27 997
e 27 144
e 27 920
e 27 213
e 28 759
e 28 81
e 28 858
e 28 993
e 28 636
e 28 869
e 32 900
e 32 888
e 32 60
e 32 287
e 32 528
e 32 354
e 32 410
e 35 172
e 35 184
e 35 934
e 35 247
e 36 907
e 36 706
e 36 927
e 39 270
e 39 288
e 39 699
e 39 549
e 41 43
e 41 968
e 41 118
e 41 877
e 41 540
e 41 75
e 41 916
e 42 337
e 42 220
e 42 480
e 42 167
e 43 317
e 43 659
e 44 935
e 44 830
e 44 940
e 44 446
e 44 551
e 44 854
e 45 599
e 45 641
e 45 742
e 46 774
e 46 80
e 46 904
e 46 832
e 46 104
e 47 702
e 47 905
e 47 486
e 47 958
e 48 217
e 48 673
e 48 118
e 48 638
e 49 374
e 49 522
e 49 154
e 49 696
e 49 232
e 50 177
e 50 382
e 50 161
e 52 997
e 52 114
e 52 119
e 52 715
e 53 500
e 53 551
e 53 540
e 53 833
e 54 455
e 54 304
e 54 128
e 54 769
e 54 794
e 56 597
e 56 858
e 56 236
e 59 295
e 59 161
e 59 402
e 59 655
e 59 999
e 59 582
e 60 691
e 60 399
e 60 770
e 60 926
e 60 886
e 60 826
e 60 952
e 61 904
e 61 835
e 61 391
e 61 562
e 61 763
e 61 470
e 61 142
e 62 102
e 62 585
e 62 397
e 62 686
e 65 399
e 65 529
e 67 621
e 67 549
e 67 744
e 67 872
e 69 536
e 69 652
e 69 560
e 69 706
e 69 926
e 69 885
e 72 747
e 72 726
e 72 583
e 72 475
e 73 599
e 73 994
e 73 765
e 73 203
e 74 434
e 74 766
e 74 235
e 75 297
e 75 694
e 77 927
e 77 124
e 77 111
e 77 260
e 77 366
e 78 493
e 78 746
e 78 796
e 78 456
e 78 245
e 78 358
e 80 313
e 80 550
e 80 743
e 80 820
e 80 83
e 80 370
e 80 587
e 81 253
e 81 596
e 81 627
e 81 444
e 81 399
e 83 800
e 83 696
e 83 111
e 83 686
e 83 165
e 85 469
e 85 662
e 85 581
e 85 257
e 85 106
e 85 418
e 86 515
e 86 510
e 86 999
e 86 311
e 86 365
e 87 641
e 87 799
e 87 256
e 88 643
e 88 916
e 89 153
e 89 773
e 89 135
e 90 380
e 90 252
e 90 601
e 90 255
e 90 586
e 91 121
e 91 983
e 91 911
e 91 449
e 91 94
e 92 806
e 92 349
e 92 707
e 94 244
e 94 187
e 95 485
e 95 765
e 95 488
e 95 375
e 95 982
e 97 951
e 97 980
e 97 812
e 97 332
e 97 673
e 97 213
e 97 258
e 99 276
e 99 492
e 99 676
e 99 742
e 99 362
e 100 330
e 100 365
e 100 549
e 100 773
e 101 114
e 101 374
e 101 242
e 101 169
e 101 849
e 102 671
e 102 950
e 102 318
e 102 972
e 102 925
e 103 790
e 103 834
e 103 990
e 103 376
e 103 896
e 103 575
e 103 665
e 103 562
e 103 480
e 104 186
e 104 499
e 104 240
e 104 530
e 104 990
e 104 912
e 105 805
e 105 508
e 105 714
e 105 890
e 105 804
e 106 635
e 106 460
e 106 773
e 106 597
e 107 415
e 107 590
e 107 905
e 107 245
e 107 550
e 107 553
e 107 306
e 108 543
e 108 864
e 108 330
e 108 205
e 109 488
e 109 423
e 109 133
e 109 950
e 109 842
e 110 396
e 110 528
e 110 296
e 110 139
e 111 372
e 111 985
e 111 112
e 111 394
e 111 506
e 111 232
e 111 255
e 112 141
e 112 187
e 113 907
e 113 728
e 113 407
e 114 840
e 114 398
e 114 304
e 115 931
e 115 299
e 115 474
e 116 925
e 116 201
e 116 199
e 116 217
e 117 292
e 117 631
e 117 347
e 117 227
e 118 652
e 119 372
e 119 136
e 119 773
e 120 471
e 120 705
e 120 992
e 120 435
e 120 348
e 120 149
e 120 154
e 120 639
e 120 846
e 121 965
e 121 963
e 121 644
e 122 147
e 122 355
e 122 158
e 122 838
e 123 927
e 123 283
e 123 222
e 123 253
e 124 700
e 124 429
e 124 601
e 124 277
e 126 695
e 126 656
e 126 757
e 126 219
e 126 413
e 126 573
e 126 614
e 127 419
e 127 718
e 127 654
e 127 281
e 127 886
e 127 521
e 127 774
e 128 176
e 128 319
e 130 955
e 130 343
e 130 695
e 130 159
e 131 546
e 131 196
e 131 714
e 133 953
e 133 147
e 133 604
e 133 293
e 133 896
e 134 341
e 134 150
e 134 871
e 134 345
e 134 940
e 134 232
e 135 831
e 135 616
e 135 488
e 135 863
e 135 571
e 136 921
e 136 942
e 136 850
e 139 870
e 139 921
e 139 667
e 140 911
e 140 280
e 140 969
e 140 390
e 140 420
e 141 941
e 141 457
e 141 286
e 142 386
e 142 723
e 143 548
e 143 602
e 143 199
e 144 923
e 144 234
e 146 199
e 146 709
e 146 611
e 146 469
e 146 219
e 147 607
e 147 327
e 149 999
e 149 317
e 149 363
e 149 948
e 149 310
e 149 945
e 150 157
e 150 232
e 150 773
e 150 258
e 150 997
e 150 999
e 152 714
e 152 581
e 152 276
e 152 413
e 153 376
e 153 610
e 154 918
e 154 301
e 155 200
e 155 777
e 155 271
e 155 168
e 155 752
e 156 796
e 156 395
e 156 888
e 156 868
e 157 830
e 157 644
e 157 376
e 158 696
e 158 515
e 158 160
e 158 775
e 158 550
e 159 664
e 159 601
e 159 367
e 160 864
e 160 772
e 160 486
e 160 682
e 161 576
e 161 610
e 162 560
e 162 396
e 162 816
e 162 983
e 163 398
e 163 729
e 163 458
e 163 439
e 163 552
e 163 580
e 164 357
e 164 734
e 164 213
e 164 944
e 165 186
e 165 495
e 166 937
e 166 906
e 166 950
e 166 625
e 166 252
e 166 940
e 166 928
e 167 540
e 167 180
e 167 332
e 168 509
e 168 409
e 168 312
e 169 998
e 169 413
e 169 408
e 169 950
e 170 919
e 170 664
e 170 205
e 170 865
e 170 356
e 172 563
e 172 523
e 172 611
e 172 616
e 172 516
e 172 324
e 172 386
e 172 213
e 173 845
e 173 704
e 173 280
e 173 770
e 174 728
e 174 606
e 174 547
e 176 972
e 176 465
e 176 792
e 176 867
e 176 370
e 177 711
e 177 347
e 177 470
e 180 308
e 180 544
e 182 816
e 182 628
e 182 395
e 182 375
e 184 355
e 184 395
e 184 214
e 185 941
e 185 382
e 185 595
e 185 306
e 186 956
e 186 550
e 186 522
e 186 377
e 186 193
e 187 808
e 187 912
e 188 265
e 188 464
e 188 880
e 189 326
e 189 950
e 189 531
e 190 670
e 190 511
e 190 985
e 190 953
e 193 807
e 193 902
e 193 921
e 193 253
e 194 277
e 194 639
e 196 513
e 196 783
e 196 680
e 197 786
e 197 654
e 197 217
e 197 254
e 197 305
e 198 303
e 198 583
e 198 805
e 199 704
e 199 570
e 199 893
e 199 220
e 199 631
e 200 222
e 200 361
e 200 302
e 200 479
e 201 686
e 201 591
e 201 761
e 201 216
e 201 209
e 201 837
e 202 348
e 202 323
e 202 800
e 202 995
e 202 358
e 203 667
e 203 902
e 204 778
e 204 427
e 205 732
e 206 445
e 206 812
e 206 720
e 206 215
e 206 898
e 206 283
e 209 832
e 209 241
e 209 747
e 209 403
e 213 790
e 214 392
e 214 500
e 214 611
e 214 273
e 215 433
e 215 766
e 215 969
e 216 298
e 216 363
e 216 604
e 216 659
e 216 941
e 216 521
e 217 689
e 219 928
e 219 668
e 219 370
e 219 936
e 219 908
e 219 824
e 220 418
e 220 296
e 220 249
e 220 621
e 220 890
e 220 419
e 220 904
e 221 695
e 221 270
e 221 673
e 221 728
e 221 388
e 222 487
e 222 908
e 224 671
e 224 528
e 224 575
e 226 377
e 226 805
e 226 487
e 226 497
e 226 944
e 226 464
e 226 717
e 227 481
e 227 433
e 228 629
e 228 945
e 228 875
e 228 861
e 228 801
e 230 924
e 230 910
e 230 546
e 230 854
e 230 715
e 232 663
e 232 824
e 234 423
e 234 403
e 235 765
e 235 472
e 235 570
e 235 474
e 235 688
e 236 708
e 236 345
e 236 721
e 236 458
e 237 600
e 237 829
e 237 402
e 237 982
e 240 919
e 240 545
e 241 805
e 241 548
e 242 251
e 242 661
e 243 560
e 243 258
e 243 487
e 244 564
e 244 245
e 244 714
e 244 421
e 245 979
e 245 980
e 245 427
e 246 407
e 246 295
e 246 641
e 247 340
e 247 969
e 249 458
e 249 564
e 249 694
e 249 558
e 250 781
e 250 595
e 251 618
e 251 597
e 251 406
e 252 860
e 252 361
e 252 348
e 252 380
e 253 369
e 253 390
e 253 505
e 254 503
e 254 413
e 254 258
e 255 786
e 255 435
e 256 807
e 257 522
e 257 506
e 258 982
e 258 980
e 258 305
e 258 671
e 259 285
e 259 907
e 259 464
e 259 814
e 259 950
e 260 508
e 260 392
e 260 806
e 265 919
e 265 387
e 265 493
e 266 343
e 266 610
e 266 711
e 266 516
e 267 477
e 267 301
e 267 915
e 268 315
e 268 380
e 268 278
e 270 513
e 270 596
e 270 746
e 270 787
e 271 926
e 271 406
e 273 460
e 273 715
e 274 606
e 274 709
e 274 822
e 276 564
e 276 479
e 276 286
e 277 881
e 277 804
e 277 790
e 278 310
e 278 332
e 278 285
e 278 578
e 278 699
e 280 318
e 280 965
e 280 337
e 280 394
e 281 844
e 281 900
e 282 875
e 282 824
e 282 438
e 283 547
e 283 287
e 283 395
e 285 596
e 285 537
e 285 419
e 285 317
e 285 449
e 286 971
e 286 603
e 286 543
e 287 623
e 287 972
e 287 448
e 287 624
e 288 483
e 288 912
e 288 543
e 292 310
e 292 860
e 292 857
e 292 777
e 292 700
e 293 812
e 293 859
e 293 558
e 293 708
e 295 894
e 295 362
e 295 760
e 295 393
e 296 869
e 296 891
e 297 734
e 297 730
e 297 394
e 297 610
e 298 845
e 298 391
e 299 596
e 299 742
e 300 337
e 300 656
e 300 970
e 300 479
e 300 379
e 301 767
e 301 854
e 301 967
e 302 784
e 302 862
e 302 838
e 302 318
e 303 750
e 303 980
e 303 827
e 304 951
e 304 843
e 304 763
e 304 955
e 304 607
e 304 391
e 305 524
e 305 881
e 305 379
e 306 354
e 306 924
e 306 700
e 306 937
e 306 860
e 308 704
e 308 529
e 308 719
e 308 888
e 308 999
e 310 942
e 310 746
e 310 457
e 310 777
e 311 615
e 311 833
e 311 369
e 312 815
e 312 516
e 312 707
e 313 905
e 313 778
e 315 385
e 317 610
e 318 823
e 318 675
e 318 979
e 318 962
e 319 741
e 319 513
e 320 782
e 320 934
e 320 423
e 322 731
e 322 765
e 322 638
e 323 826
e 323 842
e 324 730
e 324 996
e 324 492
e 324 763
e 326 581
e 326 355
e 326 857
e 326 814
e 327 632
e 327 363
e 327 809
e 327 892
e 330 421
e 330 816
e 330 348
e 330 491
e 330 951
e 330 915
e 332 809
e 332 718
e 332 936
e 332 571
e 332 859
e 334 721
e 334 528
e 334 451
e 335 783
e 335 337
e 335 824
e 336 688
e 336 725
e 336 998
e 340 490
e 340 599
e 340 628
e 340 395
e 341 941
e 341 705
e 341 414
e 341 636
e 343 451
e 343 748
e 343 967
e 343 618
e 343 743
e 345 875
e 345 656
e 345 372
e 346 615
e 346 965
e 346 587
e 347 348
e 347 632
e 347 969
e 348 695
e 348 666
e 349 810
e 349 842
e 349 620
e 351 579
e 351 729
e 351 699
e 352 933
e 352 384
e 352 832
e 353 393
e 353 607
e 353 465
e 354 859
e 355 439
e 355 391
e 356 573
e 356 860
e 356 752
e 357 754
e 357 734
e 357 996
e 357 582
e 358 808
e 358 602
e 359 924
e 359 392
e 359 957
e 359 440
e 359 730
e 360 394
e 360 717
e 361 562
e 361 784
e 361 544
e 361 661
e 361 649
e 362 580
e 362 832
e 362 885
e 362 614
e 362 761
e 362 414
e 362 836
e 363 499
e 363 894
e 365 766
e 365 471
e 365 550
e 365 807
e 365 429
e 365 494
e 365 692
e 366 779
e 366 967
e 366 731
e 367 879
e 367 575
e 367 847
e 367 415
e 367 424
e 367 766
e 369 861
e 369 729
e 369 870
e 372 784
e 372 504
e 372 500
e 373 985
e 373 910
e 373 731
e 374 402
e 374 993
e 375 942
e 376 399
e 376 611
e 376 734
e 376 782
e 377 586
e 377 606
e 377 643
e 379 631
e 379 659
e 379 643
e 380 996
e 380 487
e 381 537
e 381 969
e 382 763
e 382 702
e 383 692
e 383 601
e 383 409
e 384 754
e 384 544
e 385 639
e 385 619
e 385 410
e 386 415
e 386 740
e 387 470
e 387 589
e 388 856
e 388 446
e 390 407
e 390 591
e 390 847
e 390 708
e 391 823
e 391 807
e 391 792
e 391 615
e 391 981
e 392 487
e 392 929
e 393 526
e 393 871
e 393 846
e 393 585
e 393 881
e 393 896
e 394 523
e 394 567
e 394 628
e 395 670
e 395 822
e 396 828
e 396 546
e 396 852
e 396 654
e 397 723
e 397 490
e 397 635
e 397 918
e 398 466
e 398 479
e 402 475
e 402 487
e 402 775
e 403 844
e 404 862
e 404 955
e 404 412
e 405 574
e 405 724
e 405 545
e 405 783
e 405 436
e 406 610
e 406 616
e 406 596
e 407 545
e 407 879
e 408 556
e 408 997
e 409 870
e 409 424
e 410 786
e 412 581
e 412 761
e 412 545
e 412 958
e 413 509
e 413 941
e 413 905
e 414 886
e 414 643
e 414 610
e 415 695
e 418 778
e 420 987
e 420 720
e 421 825
e 421 991
e 421 815
e 421 732
e 422 856
e 422 833
e 422 952
e 422 591
e 422 811
e 423 952
e 423 445
e 423 842
e 424 766
e 424 796
e 424 516
e 426 927
e 426 923
e 426 470
e 426 839
e 426 798
e 426 461
e 427 439
e 427 535
e 427 991
e 427 589
e 429 836
e 433 589
e 433 575
e 434 435
e 435 567
e 436 657
e 436 907
e 436 649
e 438 536
e 438 545
e 439 804
e 439 971
e 440 766
e 440 634
e 441 741
e 441 635
e 441 586
e 444 959
e 444 831
e 444 639
e 445 477
e 446 496
e 446 761
e 446 492
e 447 945
e 447 850
e 447 854
e 448 629
e 448 717
e 448 456
e 449 607
e 451 994
e 451 757
e 451 995
e 451 820
e 451 790
e 451 613
e 455 950
e 455 575
e 455 740
e 456 960
e 457 995
e 460 992
e 460 922
e 460 465
e 460 713
e 460 800
e 460 757
e 461 516
e 461 784
e 461 647
e 464 659
e 465 523
e 465 867
e 465 801
e 465 875
e 465 506
e 465 847
e 465 907
e 466 859
e 466 848
e 469 603
e 469 750
e 469 787
e 470 638
e 470 596
e 470 936
e 471 798
e 472 799
e 472 920
e 473 494
e 473 915
e 473 923
e 473 935
e 473 917
e 474 512
e 474 496
e 475 827
e 475 603
e 477 479
e 480 581
e 480 615
e 481 571
e 481 934
e 483 888
e 483 723
e 483 941
e 483 840
e 485 676
e 485 612
e 485 927
e 486 972
e 486 666
e 486 753
e 487 982
e 487 669
e 487 845
e 490 865
e 490 805
e 490 907
e 491 971
e 491 832
e 492 618
e 493 714
e 494 879
e 494 937
e 495 905
e 495 641
e 495 656
e 495 805
e 496 629
e 496 720
e 496 997
e 496 570
e 497 576
e 497 928
e 497 953
e 499 534
e 499 916
e 499 699
e 499 804
e 500 596
e 500 612
e 503 668
e 503 553
e 504 727
e 504 839
e 505 802
e 505 663
e 505 534
e 505 959
e 506 828
e 506 660
e 508 530
e 508 959
e 508 778
e 508 952
e 509 523
e 509 979
e 509 568
e 509 906
e 510 885
e 511 904
e 512 628
e 512 924
e 512 922
e 512 798
e 512 919
e 513 957
e 513 979
e 515 769
e 515 770
e 515 595
e 516 665
e 516 627
e 516 770
e 520 756
e 520 612
e 520 994
e 521 960
e 521 750
e 522 830
e 522 580
e 522 831
e 523 940
e 523 928
e 524 992
e 524 581
e 526 540
e 528 838
e 528 694
e 528 825
e 528 784
e 528 787
e 529 660
e 529 992
e 529 870
e 530 709
e 531 742
e 531 720
e 531 985
e 531 553
e 531 724
e 531 538
e 532 536
e 532 700
e 532 753
e 534 872
e 535 587
e 535 865
e 535 728
e 536 997
e 536 543
e 538 935
e 538 556
e 539 890
e 539 724
e 539 995
e 540 578
e 541 859
e 541 546
e 541 625
e 543 910
e 544 753
e 545 589
e 546 919
e 546 920
e 547 664
e 548 556
e 550 700
e 551 575
e 551 859
e 552 836
e 552 759
e 553 781
e 553 774
e 554 901
e 554 581
e 554 891
e 556 893
e 556 581
e 556 904
e 556 760
e 558 623
e 562 705
e 563 726
e 563 717
e 563 568
e 563 981
e 563 848
e 567 709
e 567 615
e 568 848
e 568 985
e 570 969
e 570 766
e 571 955
e 573 574
e 573 811
e 573 839
e 573 941
e 574 759
e 574 915
e 574 775
e 574 805
e 574 600
e 574 678
e 574 777
e 574 636
e 575 773
e 575 661
e 575 855
e 576 631
e 578 904
e 579 875
e 579 830
e 579 809
e 580 965
e 580 840
e 580 600
e 580 907
e 581 891
e 581 918
e 581 597
e 581 669
e 582 816
e 582 941
e 583 998
e 583 740
e 583 623
e 585 611
e 585 709
e 586 714
e 586 596
e 587 853
e 589 997
e 589 947
e 589 805
e 589 848
e 589 649
e 590 885
e 590 968
e 590 862
e 590 891
e 591 605
e 595 992
e 596 638
e 596 862
e 596 621
e 597 747
e 597 910
e 599 835
e 599 675
e 599 908
e 600 929
e 600 774
e 600 827
e 601 766
e 602 727
e 603 933
e 604 736
e 604 790
e 604 853
e 605 864
e 605 766
e 605 868
e 606 923
e 606 955
e 606 875
e 610 834
e 610 736
e 610 612
e 612 902
e 612 691
e 612 922
e 612 901
e 613 934
e 613 959
e 614 718
e 616 643
e 616 926
e 616 955
e 616 962
e 617 950
e 617 636
e 617 787
e 617 709
e 618 792
e 618 944
e 619 875
e 619 935
e 620 980
e 620 955
e 621 824
e 621 676
e 623 960
e 623 756
e 624 901
e 624 794
e 625 729
e 627 774
e 627 725
e 629 840
e 631 714
e 631 857
e 632 725
e 632 667
e 634 782
e 634 955
e 635 754
e 636 772
e 636 980
e 636 982
e 638 835
e 638 686
e 639 711
e 639 741
e 641 688
e 641 790
e 644 715
e 644 659
e 647 734
e 647 862
e 652 699
e 654 777
e 654 875
e 654 769
e 655 843
e 655 870
e 656 908
e 656 867
e 657 815
e 657 799
e 657 694
e 659 826
e 659 754
e 660 688
e 661 806
e 662 767
e 662 945
e 662 744
e 663 911
e 663 794
e 664 947
e 664 692
e 664 910
e 664 726
e 665 891
e 665 896
e 666 717
e 667 779
e 667 836
e 667 750
e 667 727
e 668 852
e 668 766
e 668 711
e 668 675
e 669 965
e 669 894
e 670 675
e 670 713
e 671 860
e 671 952
e 673 995
e 673 990
e 675 705
e 675 913
e 675 769
e 675 723
e 676 896
e 676 834
e 678 769
e 678 892
e 680 858
e 680 774
e 680 804
e 682 748
e 682 879
e 682 784
e 686 997
e 686 695
e 686 993
e 689 982
e 689 838
e 689 891
e 689 915
e 690 826
e 690 767
e 690 866
e 690 838
e 691 832
e 692 958
e 694 765
e 694 750
e 695 877
e 696 849
e 700 842
e 702 741
e 705 726
e 706 814
e 706 825
e 706 766
e 706 980
e 707 804
e 711 756
e 719 761
e 720 929
e 720 763
e 721 830
e 722 893
e 722 864
e 722 910
e 723 869
e 724 875
e 724 853
e 724 849
e 724 885
e 725 906
e 726 881
e 726 837
e 727 888
e 727 744
e 727 970
e 727 759
e 731 948
e 731 969
e 732 950
e 732 740
e 732 869
e 734 983
e 736 806
e 736 847
e 740 770
e 740 773
e 741 742
e 741 982
e 741 933
e 742 799
e 742 955
e 742 772
e 743 911
e 743 855
e 743 763
e 744 893
e 746 774
e 748 976
e 752 993
e 753 832
e 754 868
e 756 757
e 759 994
e 760 948
e 760 857
e 760 861
e 761 922
e 765 951
e 767 940
e 770 896
e 770 820
e 770 911
e 774 931
e 774 842
e 774 987
e 775 872
e 778 907
e 779 922
e 779 807
e 781 947
e 783 871
e 783 857
e 787 845
e 790 814
e 790 944
e 792 800
e 794 937
e 794 907
e 798 863
e 799 845
e 799 927
e 802 991
e 804 847
e 804 809
e 806 836
e 808 846
e 810 942
e 810 850
e 811 956
e 811 941
e 811 934
e 811 919
e 812 896
e 816 956
e 816 898
e 816 904
e 816 854
e 816 855
e 822 905
e 822 870
e 822 936
e 822 931
e 823 995
e 827 831
e 828 864
e 829 941
e 829 835
e 831 880
e 831 999
e 832 987
e 832 877
e 835 923
e 836 843
e 837 901
e 843 917
e 843 996
e 844 931
e 844 917
e 845 856
e 846 923
e 847 913
e 849 860
e 849 908
e 850 857
e 850 970
e 852 996
e 855 994
e 859 900
e 863 968
e 863 948
e 863 870
e 864 948
e 865 944
e 866 979
e 867 963
e 870 976
e 871 962
e 872 959
e 879 915
e 881 970
e 891 896
e 892 993
e 892 981
e 893 937
e 893 898
e 901 929
e 901 957
e 906 933
e 913 950
e 916 940
e 921 928
e 925 963
e 927 929
e 928 980
e 928 981
e 940 996
e 941 948
e 945 952
e 950 953
e 956 979
e 960 990
e 962 979
e 969 991
